data/instances/vrp_files/train_41.vrp
NAME : 41
COMMENT : Generated instance No. 41
TYPE : CVRP
DIMENSION : 21
EDGE_WEIGHT_TYPE : EUC_2D
CAPACITY : 30
NODE_COORD_SECTION
 1 105 167
 2 816 67
 3 387 851
 4 403 77
 5 542 861
 6 590 226
 7 384 450
 8 579 759
 9 98 889
 10 12 370
 11 27 392
 12 525 511
 13 165 645
 14 44 761
 15 946 339
 16 517 378
 17 6 385
 18 791 595
 19 101 847
 20 531 841
 21 580 559
DEMAND_SECTION
1 0
2 2
3 5
4 8
5 8
6 3
7 4
8 10
9 6
10 10
11 3
12 2
13 6
14 5
15 10
16 5
17 10
18 5
19 10
20 5
21 3
DEPOT_SECTION
 1
 -1
EOF